n = 5;

matrix = array2d(1..5, 1..5, [0.0, 0.5, 1.0, 1.4142135623730951, 1.0, 0.5, 0.0,
    0.5, 1.118033988749895, 1.118033988749895, 1.0, 0.5, 0.0, 1.0,
    1.4142135623730951, 1.4142135623730951, 1.118033988749895, 1.0,
    0.0, 1.0, 1.0, 1.118033988749895, 1.4142135623730951, 1.0, 0.0]);

